32      4       
13      13      11      16      
0       0       0       0       0       7       2       3       4       5       6       7       13      
10      0       0       1       1       5       8       9       10      12      15      
4       0       5       0       5       5       9       10      11      14      15      
9       0       0       1       10      3       9       10      14      
9       4       0       1       0       4       10      16      17      18      
9       0       5       1       0       3       9       10      21      
4       1       10      0       0       2       9       10      
8       1       5       0       0       5       14      20      22      24      30      
2       0       0       11      1       4       16      17      19      29      
2       0       1       1       0       7       19      20      22      24      26      28      30      
6       0       1       5       0       6       18      19      24      29      30      31      
5       0       1       0       1       4       17      20      26      31      
1       0       1       3       0       4       16      20      22      24      
8       0       0       2       1       5       18      19      28      29      31      
9       0       1       9       0       5       21      22      27      28      30      
10      1       0       1       0       5       23      26      27      28      31      
5       8       5       0       0       4       22      24      28      30      
4       5       1       0       0       3       21      23      27      
9       1       0       0       10      2       23      27      
2       6       1       0       0       2       23      29      
3       6       6       0       0       2       25      26      
7       3       0       0       2       1       23      
5       0       0       2       1       1       25      
10      3       0       0       7       1       25      
4       0       5       0       1       1       32      
4       1       0       1       0       1       32      
6       1       0       0       1       1       32      
3       0       1       0       6       1       32      
7       1       0       1       0       1       32      
5       0       0       1       3       1       32      
8       7       0       0       10      1       32      
0       0       0       0       0       0       
